letting n =  10
letting blocks =  [[1, 1], [1, 3], [1, 4], [1, 6], [1, 7], [1, 8], [2, 3], [2, 4], [2, 5], [2, 8], [2, 9], [2, 10], [3, 1], [3, 2], [3, 4], [3, 8], [4, 2], [4, 4], [4, 6], [4, 7], [4, 9], [4, 10], [5, 1], [5, 2], [5, 3], [5, 4], [5, 6], [5, 7], [6, 2], [6, 5], [6, 7], [6, 9], [6, 10], [7, 1], [7, 2], [7, 5], [7, 6], [7, 9], [7, 10], [8, 3], [8, 4], [8, 5], [8, 6], [8, 10], [9, 1], [9, 3], [9, 6], [9, 7], [9, 9], [9, 10], [10, 1], [10, 2], [10, 3], [10, 7], [10, 8], [10, 9]]
